decision_x1=[0,7];
decision_x2=[0,7];
decision_x3=[0,7];
decision_x4=[0,7];
decision_x5=[0,7];
decision_x6=[0,7];
decision_x7=[0,7];
decision_x8=[0,7];
decision_x9=[0,7];
decision_x10=[0,7];
decision_x11=[0,7];
decision_x12=[0,7];
decision_x13=[0,7];
decision_x14=[0,7];
decision_x15=[0,7];
decision_x16=[0,7];
decision_x17=[0,7];
decision_x18=[0,7];
decision_x19=[0,7];
decision_x20=[0,7];
random_y1=[0,7];
random_y2=[0,7];
random_y3=[0,7];
random_y4=[0,7];
random_y5=[0,7];
random_y6=[0,7];
random_y7=[0,7];
random_y8=[0,7];
random_y9=[0,7];
constraint_x2_x1=[
0,0,1.2|
0,1,1.7|
0,2,5.7|
0,3,7.5|
0,4,5.5|
0,5,7.1|
0,6,5.3|
0,7,3.2|
1,0,7.1|
1,1,3.7|
1,2,3.5|
1,3,4.2|
1,4,4.3|
1,5,1.4|
1,6,4.8|
1,7,2.6|
2,0,4.3|
2,1,7.3|
2,2,2.8|
2,3,0.006|
2,4,5|
2,5,5.7|
2,6,4.5|
2,7,0.063|
3,0,8.9|
3,1,9.9|
3,2,7.4|
3,3,4.4|
3,4,6|
3,5,6.3|
3,6,3|
3,7,9.4|
4,0,3.6|
4,1,0.0026|
4,2,2.7|
4,3,6.2|
4,4,2.3|
4,5,1.2|
4,6,7.4|
4,7,4.3|
5,0,5.2|
5,1,5.7|
5,2,5.2|
5,3,8.7|
5,4,4.7|
5,5,1.9|
5,6,6.9|
5,7,1.7|
6,0,9.9|
6,1,5.1|
6,2,9.4|
6,3,1.6|
6,4,0.14|
6,5,4.7|
6,6,2.9|
6,7,6.7|
7,0,2.6|
7,1,0.7|
7,2,9.1|
7,3,5.9|
7,4,1|
7,5,1.5|
7,6,3.2|
7,7,8.4|
];
constraint_x3_x2=[
0,0,9.9|
0,1,5.9|
0,2,0.0041|
0,3,2.3|
0,4,4|
0,5,4.6|
0,6,3|
0,7,8.5|
1,0,0.81|
1,1,6.7|
1,2,1.3|
1,3,7.5|
1,4,0.16|
1,5,0.46|
1,6,3.6|
1,7,4.9|
2,0,6.3|
2,1,8.7|
2,2,1.9|
2,3,4.1|
2,4,9.9|
2,5,8.4|
2,6,2.4|
2,7,4.8|
3,0,2.1|
3,1,2.9|
3,2,3.2|
3,3,1.4|
3,4,5.6|
3,5,8.8|
3,6,1.8|
3,7,7.6|
4,0,2.4|
4,1,1.6|
4,2,2|
4,3,5.8|
4,4,2.1|
4,5,6.8|
4,6,8.9|
4,7,6.5|
5,0,6.7|
5,1,3.2|
5,2,4.3|
5,3,8.5|
5,4,6.2|
5,5,0.17|
5,6,0.83|
5,7,4.7|
6,0,8.9|
6,1,7.8|
6,2,8.2|
6,3,4.9|
6,4,1.2|
6,5,6.1|
6,6,7.3|
6,7,3.3|
7,0,6|
7,1,2.3|
7,2,1.6|
7,3,4.1|
7,4,3.7|
7,5,7.2|
7,6,3.2|
7,7,7.8|
];
constraint_x4_x3=[
0,0,7.2|
0,1,0.24|
0,2,5.1|
0,3,4.9|
0,4,9.6|
0,5,1.3|
0,6,2.9|
0,7,5.4|
1,0,6.3|
1,1,6.2|
1,2,6.3|
1,3,2.9|
1,4,1.7|
1,5,4.9|
1,6,6.9|
1,7,3.9|
2,0,3|
2,1,9.7|
2,2,6.5|
2,3,8.5|
2,4,1.5|
2,5,3.7|
2,6,5.3|
2,7,5.7|
3,0,4.4|
3,1,1.7|
3,2,3.5|
3,3,9.2|
3,4,1.6|
3,5,9.8|
3,6,9.2|
3,7,0.16|
4,0,3.9|
4,1,7|
4,2,0.0023|
4,3,1.4|
4,4,9.1|
4,5,2.6|
4,6,9.4|
4,7,3.5|
5,0,9.2|
5,1,1.6|
5,2,5.4|
5,3,5.8|
5,4,1.8|
5,5,5.9|
5,6,8.6|
5,7,4.6|
6,0,5|
6,1,8.8|
6,2,1.2|
6,3,7.4|
6,4,0.47|
6,5,2|
6,6,3.5|
6,7,1.5|
7,0,9.7|
7,1,8.8|
7,2,0.21|
7,3,3.2|
7,4,8.2|
7,5,0.84|
7,6,8.6|
7,7,4.1|
];
constraint_x5_x1=[
0,0,5.3|
0,1,0.25|
0,2,7.1|
0,3,3.4|
0,4,1.3|
0,5,2.7|
0,6,4.5|
0,7,0.7|
1,0,5.1|
1,1,0.12|
1,2,5.8|
1,3,4|
1,4,7.7|
1,5,1.2|
1,6,5.3|
1,7,0.94|
2,0,2.1|
2,1,4.1|
2,2,8.1|
2,3,5|
2,4,8.9|
2,5,3.9|
2,6,8.5|
2,7,9.3|
3,0,2.7|
3,1,4.3|
3,2,7|
3,3,2.2|
3,4,3.5|
3,5,8.2|
3,6,8.6|
3,7,6.5|
4,0,3.5|
4,1,2|
4,2,2.2|
4,3,4.4|
4,4,4.7|
4,5,2.4|
4,6,10|
4,7,9.1|
5,0,4.3|
5,1,0.12|
5,2,4.1|
5,3,8.6|
5,4,2.3|
5,5,3.9|
5,6,4.1|
5,7,3.6|
6,0,6.2|
6,1,9.9|
6,2,7.3|
6,3,4.9|
6,4,2.9|
6,5,3.6|
6,6,9.4|
6,7,2.6|
7,0,3.9|
7,1,5|
7,2,0.4|
7,3,1.5|
7,4,0.8|
7,5,4.2|
7,6,0.99|
7,7,9.8|
];
constraint_x6_x2=[
0,0,5.7|
0,1,9.8|
0,2,8.5|
0,3,4.6|
0,4,5.2|
0,5,4.3|
0,6,0.99|
0,7,4.6|
1,0,8.9|
1,1,3|
1,2,2.7|
1,3,7.3|
1,4,9.9|
1,5,1|
1,6,6.9|
1,7,6.9|
2,0,6.1|
2,1,5.7|
2,2,1|
2,3,0.99|
2,4,9.3|
2,5,2.9|
2,6,3.5|
2,7,5.6|
3,0,7.4|
3,1,7.6|
3,2,7.7|
3,3,8.5|
3,4,1.4|
3,5,6.6|
3,6,5.1|
3,7,0.16|
4,0,2.4|
4,1,7.4|
4,2,4.1|
4,3,5.2|
4,4,9.3|
4,5,0.46|
4,6,4.4|
4,7,4.3|
5,0,8.7|
5,1,6.8|
5,2,2.6|
5,3,6.3|
5,4,7.3|
5,5,2.6|
5,6,0.53|
5,7,2.1|
6,0,5.1|
6,1,0.58|
6,2,4.3|
6,3,2.4|
6,4,6.6|
6,5,0.69|
6,6,7.8|
6,7,9|
7,0,9.8|
7,1,1.8|
7,2,8.8|
7,3,4.8|
7,4,8.2|
7,5,3.1|
7,6,7.9|
7,7,9.9|
];
constraint_x6_x5=[
0,0,5.6|
0,1,3.3|
0,2,1.4|
0,3,3.2|
0,4,2.5|
0,5,9.6|
0,6,5|
0,7,7|
1,0,8.5|
1,1,1.5|
1,2,1.4|
1,3,8.1|
1,4,3.5|
1,5,6.6|
1,6,0.58|
1,7,5.4|
2,0,3.8|
2,1,3.6|
2,2,4|
2,3,3|
2,4,0.88|
2,5,3|
2,6,4.8|
2,7,0.34|
3,0,9.4|
3,1,8.8|
3,2,2.7|
3,3,3.4|
3,4,5.3|
3,5,5.5|
3,6,4.9|
3,7,5.1|
4,0,7.3|
4,1,8.5|
4,2,0.65|
4,3,8.4|
4,4,8|
4,5,9.8|
4,6,2.1|
4,7,9.6|
5,0,8.1|
5,1,4.6|
5,2,6.1|
5,3,1.3|
5,4,8.6|
5,5,7.1|
5,6,5.2|
5,7,1.8|
6,0,6.6|
6,1,8.9|
6,2,7.8|
6,3,0.98|
6,4,3.6|
6,5,6.1|
6,6,0.33|
6,7,5.7|
7,0,9.8|
7,1,4.7|
7,2,1.1|
7,3,3.4|
7,4,1.8|
7,5,1.4|
7,6,8.4|
7,7,3.4|
];
constraint_x7_x3=[
0,0,2.5|
0,1,3.4|
0,2,8.5|
0,3,6.1|
0,4,1.4|
0,5,9.1|
0,6,0.39|
0,7,1.2|
1,0,5.8|
1,1,9.8|
1,2,3.6|
1,3,7.8|
1,4,7.7|
1,5,8.6|
1,6,9.8|
1,7,4.2|
2,0,8|
2,1,6|
2,2,5.1|
2,3,5.7|
2,4,6.3|
2,5,1.9|
2,6,8.4|
2,7,9.9|
3,0,4.7|
3,1,3.1|
3,2,4|
3,3,2.1|
3,4,6.4|
3,5,0.93|
3,6,9.7|
3,7,0.93|
4,0,0.36|
4,1,4.6|
4,2,0.26|
4,3,4.9|
4,4,9.4|
4,5,3.4|
4,6,8.7|
4,7,2.1|
5,0,2.7|
5,1,0.42|
5,2,4.4|
5,3,8.1|
5,4,3.1|
5,5,7.3|
5,6,0.095|
5,7,5.5|
6,0,9.6|
6,1,2.3|
6,2,6.5|
6,3,8.2|
6,4,1.8|
6,5,2.3|
6,6,8|
6,7,1.7|
7,0,4.1|
7,1,9.9|
7,2,3.7|
7,3,6.7|
7,4,9.5|
7,5,3.3|
7,6,2.9|
7,7,8.2|
];
constraint_x7_x6=[
0,0,6.8|
0,1,1.3|
0,2,9.5|
0,3,7.8|
0,4,7|
0,5,3.4|
0,6,7.3|
0,7,8.7|
1,0,7.4|
1,1,8.2|
1,2,1.1|
1,3,6.4|
1,4,7.3|
1,5,9|
1,6,1.9|
1,7,8.7|
2,0,8.2|
2,1,0.41|
2,2,1.1|
2,3,5|
2,4,7.8|
2,5,1.1|
2,6,6.1|
2,7,2.9|
3,0,1.1|
3,1,5.2|
3,2,3.5|
3,3,1.3|
3,4,0.75|
3,5,1.6|
3,6,2.5|
3,7,3.8|
4,0,3|
4,1,1.3|
4,2,9.3|
4,3,9.7|
4,4,1.5|
4,5,9.2|
4,6,2.7|
4,7,8.4|
5,0,6.3|
5,1,9.9|
5,2,5.4|
5,3,2.5|
5,4,4.6|
5,5,1.5|
5,6,3.6|
5,7,9.9|
6,0,9.1|
6,1,4.6|
6,2,2.5|
6,3,4.4|
6,4,2.3|
6,5,6.1|
6,6,6|
6,7,4.3|
7,0,9.7|
7,1,7.7|
7,2,1.4|
7,3,1.8|
7,4,4.5|
7,5,7.6|
7,6,7|
7,7,4.7|
];
constraint_x8_x4=[
0,0,7.6|
0,1,0.73|
0,2,8.5|
0,3,8.9|
0,4,1.5|
0,5,1.4|
0,6,7.3|
0,7,0.19|
1,0,7.9|
1,1,8.2|
1,2,1.3|
1,3,2.1|
1,4,4.3|
1,5,8.2|
1,6,2.4|
1,7,8.1|
2,0,2.6|
2,1,4.9|
2,2,2.7|
2,3,8.6|
2,4,1.6|
2,5,1.8|
2,6,5.1|
2,7,4.2|
3,0,6.1|
3,1,9.4|
3,2,0.35|
3,3,7.5|
3,4,5.3|
3,5,5.1|
3,6,4.8|
3,7,3.8|
4,0,7.3|
4,1,3.8|
4,2,6.4|
4,3,9.4|
4,4,4.4|
4,5,9.5|
4,6,4.3|
4,7,1.2|
5,0,5.7|
5,1,4.1|
5,2,2.4|
5,3,5.8|
5,4,3.1|
5,5,1.7|
5,6,2.7|
5,7,1.5|
6,0,4.8|
6,1,0.7|
6,2,7.1|
6,3,1.1|
6,4,5.3|
6,5,2.5|
6,6,6.6|
6,7,0.022|
7,0,8.9|
7,1,0.12|
7,2,9.6|
7,3,4.7|
7,4,7.1|
7,5,6.4|
7,6,3.3|
7,7,0.4|
];
constraint_x8_x7=[
0,0,5|
0,1,6.9|
0,2,8.7|
0,3,3|
0,4,8.8|
0,5,0.46|
0,6,5.2|
0,7,5.4|
1,0,1.1|
1,1,2.8|
1,2,2.3|
1,3,3.1|
1,4,1.1|
1,5,8.4|
1,6,5.6|
1,7,0.019|
2,0,9.1|
2,1,5.7|
2,2,1.9|
2,3,9.2|
2,4,8.4|
2,5,2.2|
2,6,6.1|
2,7,0.54|
3,0,0.66|
3,1,6.4|
3,2,4.6|
3,3,9.1|
3,4,8.5|
3,5,3.5|
3,6,7.7|
3,7,3.4|
4,0,6.2|
4,1,7.6|
4,2,4.5|
4,3,5.1|
4,4,8|
4,5,4.1|
4,6,7.3|
4,7,1.4|
5,0,0.85|
5,1,0.27|
5,2,4.4|
5,3,0.42|
5,4,2.9|
5,5,4.9|
5,6,8|
5,7,6.6|
6,0,5.4|
6,1,5.8|
6,2,5.8|
6,3,9.4|
6,4,6.8|
6,5,0.95|
6,6,4|
6,7,7.3|
7,0,1.9|
7,1,9.1|
7,2,8.2|
7,3,7.4|
7,4,4|
7,5,9.4|
7,6,6|
7,7,4.8|
];
constraint_x9_x5=[
0,0,8.3|
0,1,5.4|
0,2,4.1|
0,3,3|
0,4,9.1|
0,5,6|
0,6,8.3|
0,7,3.6|
1,0,2.7|
1,1,9.8|
1,2,0.88|
1,3,9.5|
1,4,8.5|
1,5,7.8|
1,6,2.2|
1,7,9.9|
2,0,8.5|
2,1,9|
2,2,7.9|
2,3,6.6|
2,4,4.5|
2,5,1.2|
2,6,3.6|
2,7,5.8|
3,0,3.3|
3,1,2.5|
3,2,1.7|
3,3,1.2|
3,4,10|
3,5,4.9|
3,6,2.1|
3,7,7.9|
4,0,4.3|
4,1,9.6|
4,2,9.9|
4,3,0.77|
4,4,5.2|
4,5,6.7|
4,6,8.4|
4,7,4.2|
5,0,2.7|
5,1,2.2|
5,2,5.3|
5,3,4.5|
5,4,6|
5,5,6.6|
5,6,5.2|
5,7,2.7|
6,0,2.2|
6,1,8.8|
6,2,2.5|
6,3,7.1|
6,4,2.9|
6,5,6.7|
6,6,2.1|
6,7,7.5|
7,0,0.37|
7,1,6.3|
7,2,8.7|
7,3,9|
7,4,9.2|
7,5,5|
7,6,9.6|
7,7,8|
];
constraint_x10_x6=[
0,0,8.4|
0,1,9.8|
0,2,5.8|
0,3,8.1|
0,4,0.65|
0,5,2.7|
0,6,4.4|
0,7,2.2|
1,0,10|
1,1,9.6|
1,2,1.1|
1,3,4|
1,4,4.9|
1,5,7.2|
1,6,9.1|
1,7,7.1|
2,0,0.41|
2,1,4.8|
2,2,2|
2,3,2.6|
2,4,0.18|
2,5,5.4|
2,6,9.7|
2,7,6.7|
3,0,9.5|
3,1,8.9|
3,2,7.6|
3,3,1.9|
3,4,3.3|
3,5,3.9|
3,6,1.7|
3,7,5.7|
4,0,6.4|
4,1,1.5|
4,2,6.3|
4,3,0.66|
4,4,4.6|
4,5,0.45|
4,6,7|
4,7,9.5|
5,0,9.6|
5,1,2.2|
5,2,8.1|
5,3,0.31|
5,4,8.5|
5,5,1.6|
5,6,6.6|
5,7,8.6|
6,0,3.1|
6,1,3.8|
6,2,2.7|
6,3,3.2|
6,4,3|
6,5,8.2|
6,6,8.8|
6,7,6.5|
7,0,1.5|
7,1,8.1|
7,2,3.8|
7,3,0.093|
7,4,7.8|
7,5,3.9|
7,6,6.5|
7,7,2.8|
];
constraint_x10_x9=[
0,0,0.76|
0,1,5.7|
0,2,3.7|
0,3,2.3|
0,4,1.6|
0,5,8.4|
0,6,0.53|
0,7,7.4|
1,0,5.8|
1,1,6.5|
1,2,1|
1,3,5|
1,4,3.8|
1,5,6.7|
1,6,9.7|
1,7,1.2|
2,0,7.1|
2,1,2.6|
2,2,6|
2,3,8.5|
2,4,3.7|
2,5,9.4|
2,6,8.6|
2,7,5.3|
3,0,1|
3,1,10|
3,2,2.4|
3,3,9.8|
3,4,4.4|
3,5,2.9|
3,6,2.9|
3,7,6.8|
4,0,8.9|
4,1,1.8|
4,2,3.4|
4,3,8.2|
4,4,4.3|
4,5,5.1|
4,6,5.9|
4,7,9.9|
5,0,1.4|
5,1,2.9|
5,2,0.21|
5,3,3.5|
5,4,7.3|
5,5,6.1|
5,6,5.4|
5,7,3.8|
6,0,2.9|
6,1,7.5|
6,2,2.4|
6,3,8.8|
6,4,8.5|
6,5,7.4|
6,6,0.84|
6,7,9.1|
7,0,3.2|
7,1,2.3|
7,2,1.8|
7,3,2.6|
7,4,8.1|
7,5,8.8|
7,6,0.034|
7,7,4.9|
];
constraint_x11_x7=[
0,0,1.3|
0,1,2|
0,2,3.7|
0,3,6.9|
0,4,2|
0,5,1.3|
0,6,9.1|
0,7,0.036|
1,0,0.086|
1,1,2.5|
1,2,1.2|
1,3,9.2|
1,4,3.9|
1,5,5|
1,6,7.8|
1,7,1.9|
2,0,3.3|
2,1,3.6|
2,2,1.5|
2,3,1.4|
2,4,6.2|
2,5,1.9|
2,6,3.6|
2,7,6.5|
3,0,9|
3,1,9.3|
3,2,6.3|
3,3,9.8|
3,4,3.5|
3,5,1.7|
3,6,5.5|
3,7,8.6|
4,0,2.4|
4,1,2.6|
4,2,2.2|
4,3,0.45|
4,4,5|
4,5,3.6|
4,6,6.4|
4,7,2.4|
5,0,2.3|
5,1,9.9|
5,2,3|
5,3,9.4|
5,4,6.5|
5,5,6.3|
5,6,2.1|
5,7,5.6|
6,0,6|
6,1,5.2|
6,2,6.2|
6,3,4.4|
6,4,8.6|
6,5,3.4|
6,6,6.7|
6,7,9.6|
7,0,6.4|
7,1,5.1|
7,2,0.73|
7,3,8.3|
7,4,1|
7,5,2.6|
7,6,3.4|
7,7,7.1|
];
constraint_x11_x10=[
0,0,6.6|
0,1,4.3|
0,2,0.5|
0,3,0.53|
0,4,8.9|
0,5,9.6|
0,6,6.6|
0,7,5.9|
1,0,9.2|
1,1,2.4|
1,2,2.7|
1,3,5.7|
1,4,9.5|
1,5,3.9|
1,6,2.1|
1,7,4|
2,0,8.2|
2,1,0.77|
2,2,5.3|
2,3,4.4|
2,4,0.18|
2,5,8.1|
2,6,4|
2,7,1.8|
3,0,6.5|
3,1,3.5|
3,2,2.1|
3,3,0.71|
3,4,5.8|
3,5,0.13|
3,6,4.1|
3,7,0.84|
4,0,4.2|
4,1,3.4|
4,2,7.9|
4,3,3.4|
4,4,10|
4,5,8.4|
4,6,2.6|
4,7,7|
5,0,0.0003|
5,1,6.6|
5,2,7.8|
5,3,2.1|
5,4,4.9|
5,5,7|
5,6,1.1|
5,7,3.9|
6,0,7.9|
6,1,2.7|
6,2,3|
6,3,1.7|
6,4,0.67|
6,5,1.7|
6,6,7.9|
6,7,0.74|
7,0,8.7|
7,1,1.9|
7,2,9.1|
7,3,9.5|
7,4,9.8|
7,5,5.3|
7,6,6.6|
7,7,8.9|
];
constraint_x12_x8=[
0,0,7.7|
0,1,5.4|
0,2,4.9|
0,3,1.3|
0,4,9.2|
0,5,2.3|
0,6,1.2|
0,7,7.4|
1,0,4.7|
1,1,5.7|
1,2,7.5|
1,3,8.3|
1,4,8|
1,5,0.27|
1,6,4.8|
1,7,5.7|
2,0,8.9|
2,1,9.1|
2,2,2|
2,3,5.3|
2,4,2.8|
2,5,5.9|
2,6,4.1|
2,7,7.4|
3,0,2.6|
3,1,4.5|
3,2,0.12|
3,3,6.2|
3,4,7.8|
3,5,0.14|
3,6,0.89|
3,7,4.5|
4,0,7|
4,1,2.8|
4,2,7.6|
4,3,0.73|
4,4,3.5|
4,5,2.3|
4,6,6.9|
4,7,1.7|
5,0,7.1|
5,1,8|
5,2,7.5|
5,3,0.99|
5,4,3.9|
5,5,3.6|
5,6,7.8|
5,7,1.7|
6,0,7.4|
6,1,0.23|
6,2,5.8|
6,3,4.6|
6,4,0.086|
6,5,4.1|
6,6,4.1|
6,7,1.1|
7,0,8.4|
7,1,0.24|
7,2,9.2|
7,3,0.16|
7,4,3.1|
7,5,9.7|
7,6,4.9|
7,7,8.2|
];
constraint_x12_x11=[
0,0,4.7|
0,1,5.3|
0,2,0.64|
0,3,0.29|
0,4,8.4|
0,5,3.3|
0,6,1.1|
0,7,0.73|
1,0,1.6|
1,1,0.061|
1,2,4.8|
1,3,2|
1,4,3.2|
1,5,2.4|
1,6,6.2|
1,7,8.8|
2,0,6.2|
2,1,8.2|
2,2,0.42|
2,3,5|
2,4,4.4|
2,5,1.6|
2,6,5.7|
2,7,2.2|
3,0,3.7|
3,1,1.3|
3,2,2.8|
3,3,4.6|
3,4,9.2|
3,5,6.4|
3,6,8.6|
3,7,2.9|
4,0,4.3|
4,1,9.9|
4,2,1.1|
4,3,3.4|
4,4,8.6|
4,5,5.2|
4,6,7.8|
4,7,9.6|
5,0,7.6|
5,1,0.21|
5,2,7.8|
5,3,6.4|
5,4,3.5|
5,5,5.2|
5,6,3|
5,7,4.6|
6,0,0.87|
6,1,5.5|
6,2,6.2|
6,3,9.2|
6,4,5.7|
6,5,1.9|
6,6,6.5|
6,7,5.1|
7,0,7.1|
7,1,1.8|
7,2,7.1|
7,3,10|
7,4,8.1|
7,5,4.5|
7,6,5.1|
7,7,6.5|
];
constraint_x13_x9=[
0,0,0.27|
0,1,8.3|
0,2,8.5|
0,3,7.1|
0,4,4.5|
0,5,2.1|
0,6,9.6|
0,7,6.9|
1,0,0.71|
1,1,1.8|
1,2,8|
1,3,4|
1,4,5.5|
1,5,6.7|
1,6,3.3|
1,7,0.78|
2,0,6.4|
2,1,9.2|
2,2,9.6|
2,3,5.2|
2,4,6|
2,5,6.4|
2,6,6.3|
2,7,3.3|
3,0,8.8|
3,1,7.6|
3,2,7.4|
3,3,4.6|
3,4,9.3|
3,5,4.3|
3,6,9.8|
3,7,2.5|
4,0,1.2|
4,1,1.5|
4,2,8.6|
4,3,0.31|
4,4,0.3|
4,5,6.5|
4,6,8|
4,7,8.8|
5,0,1.9|
5,1,5.3|
5,2,4.8|
5,3,0.45|
5,4,2.8|
5,5,4.4|
5,6,6.7|
5,7,1.2|
6,0,7.5|
6,1,3|
6,2,7.3|
6,3,7.9|
6,4,6.3|
6,5,5.9|
6,6,2.6|
6,7,0.36|
7,0,9|
7,1,3.1|
7,2,6.5|
7,3,9.7|
7,4,1.8|
7,5,5.7|
7,6,6.5|
7,7,9.7|
];
constraint_x14_x10=[
0,0,7.6|
0,1,3|
0,2,9.2|
0,3,2|
0,4,9.6|
0,5,5.3|
0,6,8.6|
0,7,7.8|
1,0,7|
1,1,9.7|
1,2,7|
1,3,6.3|
1,4,9|
1,5,5.2|
1,6,8|
1,7,1.2|
2,0,5.4|
2,1,3.1|
2,2,8|
2,3,7.7|
2,4,6.2|
2,5,8.6|
2,6,8.1|
2,7,6.1|
3,0,7.1|
3,1,7.7|
3,2,1.6|
3,3,2.6|
3,4,6.2|
3,5,1.4|
3,6,8.9|
3,7,2.4|
4,0,2.1|
4,1,9.2|
4,2,3.9|
4,3,8.1|
4,4,4.5|
4,5,5.3|
4,6,1.4|
4,7,2.8|
5,0,2.6|
5,1,0.64|
5,2,9|
5,3,7.7|
5,4,9.3|
5,5,5.3|
5,6,8.5|
5,7,9.5|
6,0,2.3|
6,1,7.9|
6,2,0.7|
6,3,7.5|
6,4,7.7|
6,5,0.034|
6,6,6.7|
6,7,5|
7,0,0.25|
7,1,5.2|
7,2,7.7|
7,3,2.7|
7,4,9.1|
7,5,1.9|
7,6,8.5|
7,7,8.9|
];
constraint_x14_x13=[
0,0,0.14|
0,1,0.79|
0,2,6.3|
0,3,5.9|
0,4,8.7|
0,5,2.4|
0,6,9.7|
0,7,9.8|
1,0,4.3|
1,1,3.1|
1,2,2.9|
1,3,9.9|
1,4,8.7|
1,5,2.3|
1,6,8.6|
1,7,5.5|
2,0,0.016|
2,1,7.8|
2,2,8.8|
2,3,0.32|
2,4,5.4|
2,5,4.5|
2,6,7.4|
2,7,3.7|
3,0,3.9|
3,1,8.5|
3,2,5|
3,3,8.5|
3,4,3.9|
3,5,9.1|
3,6,8.3|
3,7,2.7|
4,0,5.8|
4,1,7.8|
4,2,2.3|
4,3,2.6|
4,4,9|
4,5,0.2|
4,6,5.4|
4,7,6.5|
5,0,5.8|
5,1,0.16|
5,2,9.6|
5,3,1|
5,4,2.9|
5,5,7|
5,6,5.3|
5,7,5.4|
6,0,0.95|
6,1,7.2|
6,2,1|
6,3,8.8|
6,4,8.9|
6,5,8.4|
6,6,6.1|
6,7,1.1|
7,0,3|
7,1,0.6|
7,2,9.3|
7,3,9.9|
7,4,5.3|
7,5,9|
7,6,0.44|
7,7,0.045|
];
constraint_x15_x11=[
0,0,1.7|
0,1,7.8|
0,2,8.5|
0,3,2.8|
0,4,3.5|
0,5,6.1|
0,6,6.7|
0,7,6.5|
1,0,4.3|
1,1,6.4|
1,2,2.6|
1,3,2.1|
1,4,2.3|
1,5,5.3|
1,6,5.8|
1,7,1.3|
2,0,7.9|
2,1,8.8|
2,2,5.7|
2,3,4.1|
2,4,6.3|
2,5,2.3|
2,6,9.1|
2,7,9.5|
3,0,3.1|
3,1,0.33|
3,2,1.2|
3,3,2.9|
3,4,2.9|
3,5,8.7|
3,6,9|
3,7,6.9|
4,0,8.7|
4,1,6.9|
4,2,3.7|
4,3,5.3|
4,4,5.3|
4,5,6.6|
4,6,6|
4,7,7.2|
5,0,4.7|
5,1,2.1|
5,2,3.7|
5,3,7.5|
5,4,5.1|
5,5,8.3|
5,6,9.6|
5,7,8.3|
6,0,2.7|
6,1,9.4|
6,2,7.4|
6,3,8.4|
6,4,8|
6,5,9.1|
6,6,2.8|
6,7,3.5|
7,0,2.5|
7,1,6|
7,2,1.8|
7,3,3.2|
7,4,1.9|
7,5,6.8|
7,6,0.73|
7,7,3.6|
];
constraint_x15_x14=[
0,0,2.1|
0,1,5.6|
0,2,10|
0,3,0.5|
0,4,1.8|
0,5,1.1|
0,6,6.3|
0,7,6.9|
1,0,1.1|
1,1,5.7|
1,2,5.6|
1,3,8.8|
1,4,3.4|
1,5,0.077|
1,6,6.1|
1,7,9.1|
2,0,1.1|
2,1,2|
2,2,4.6|
2,3,5.3|
2,4,2.2|
2,5,2.1|
2,6,7.1|
2,7,0.24|
3,0,4.7|
3,1,0.24|
3,2,4.2|
3,3,6.8|
3,4,1.2|
3,5,7.9|
3,6,3.1|
3,7,5.9|
4,0,6.8|
4,1,4.7|
4,2,3.9|
4,3,6.2|
4,4,4.7|
4,5,5.1|
4,6,9.2|
4,7,1.2|
5,0,2.3|
5,1,3.5|
5,2,5.3|
5,3,6.8|
5,4,1.3|
5,5,0.76|
5,6,1.5|
5,7,1.1|
6,0,0.72|
6,1,9.7|
6,2,2.1|
6,3,3|
6,4,2.3|
6,5,3.6|
6,6,9.1|
6,7,2.9|
7,0,7.1|
7,1,8.2|
7,2,5.9|
7,3,0.97|
7,4,2.7|
7,5,6.6|
7,6,0.66|
7,7,9.5|
];
constraint_x16_x12=[
0,0,4.2|
0,1,6.7|
0,2,9.6|
0,3,6.3|
0,4,1.2|
0,5,0.56|
0,6,3.9|
0,7,6.7|
1,0,3.1|
1,1,7|
1,2,2.7|
1,3,0.77|
1,4,4|
1,5,0.48|
1,6,10|
1,7,2.5|
2,0,0.039|
2,1,5.2|
2,2,4.7|
2,3,5.5|
2,4,1.1|
2,5,0.81|
2,6,0.96|
2,7,0.5|
3,0,6.2|
3,1,6.8|
3,2,3.9|
3,3,1.5|
3,4,5|
3,5,2|
3,6,3.6|
3,7,6.9|
4,0,7.4|
4,1,5.4|
4,2,9.4|
4,3,8.5|
4,4,8.1|
4,5,0.46|
4,6,3.9|
4,7,4.8|
5,0,0.5|
5,1,7.5|
5,2,0.12|
5,3,1.2|
5,4,3.6|
5,5,0.88|
5,6,3.6|
5,7,4.9|
6,0,6.7|
6,1,3.6|
6,2,9|
6,3,2.8|
6,4,5.4|
6,5,1.5|
6,6,4.9|
6,7,5.4|
7,0,2.8|
7,1,5.9|
7,2,2.6|
7,3,8.6|
7,4,5|
7,5,0.98|
7,6,9.9|
7,7,6.2|
];
constraint_x16_x15=[
0,0,9.9|
0,1,0.28|
0,2,3.1|
0,3,8.7|
0,4,1.6|
0,5,8.7|
0,6,3.1|
0,7,1.7|
1,0,4.7|
1,1,2.6|
1,2,3.2|
1,3,5.6|
1,4,4.5|
1,5,9.8|
1,6,1.8|
1,7,9.1|
2,0,6.9|
2,1,3.2|
2,2,8.7|
2,3,8.3|
2,4,4.9|
2,5,3.8|
2,6,0.78|
2,7,2.7|
3,0,6.9|
3,1,3.3|
3,2,2|
3,3,3|
3,4,5.3|
3,5,5.8|
3,6,7.2|
3,7,6.1|
4,0,1.8|
4,1,9.6|
4,2,7.4|
4,3,6.6|
4,4,5.4|
4,5,8.9|
4,6,4.7|
4,7,8.7|
5,0,3.3|
5,1,7.4|
5,2,9.1|
5,3,4.7|
5,4,8.8|
5,5,3.7|
5,6,10|
5,7,2.5|
6,0,8.6|
6,1,8.7|
6,2,4.2|
6,3,9|
6,4,1.1|
6,5,0.72|
6,6,8.2|
6,7,7.7|
7,0,6.5|
7,1,3.8|
7,2,6.7|
7,3,4.7|
7,4,4.3|
7,5,5.3|
7,6,5.8|
7,7,9.5|
];
constraint_x17_x13=[
0,0,0.066|
0,1,5.7|
0,2,6.7|
0,3,8.7|
0,4,6.9|
0,5,6.9|
0,6,5.8|
0,7,6|
1,0,4.8|
1,1,8.5|
1,2,7.1|
1,3,6.1|
1,4,2.1|
1,5,9.2|
1,6,0.39|
1,7,6.6|
2,0,9.1|
2,1,9|
2,2,2.5|
2,3,9|
2,4,8.7|
2,5,0.88|
2,6,3|
2,7,0.25|
3,0,5|
3,1,7.8|
3,2,7.4|
3,3,7.6|
3,4,7.3|
3,5,7.1|
3,6,6.2|
3,7,3.5|
4,0,3.4|
4,1,0.51|
4,2,7.4|
4,3,9.6|
4,4,7.8|
4,5,5.1|
4,6,5.9|
4,7,0.45|
5,0,8.6|
5,1,5.3|
5,2,8.9|
5,3,0.86|
5,4,5|
5,5,6.1|
5,6,6.7|
5,7,3|
6,0,2.1|
6,1,9.6|
6,2,1.1|
6,3,7|
6,4,6.3|
6,5,4.5|
6,6,7|
6,7,9.4|
7,0,0.16|
7,1,6.6|
7,2,1.8|
7,3,1.3|
7,4,4.4|
7,5,3.4|
7,6,0.28|
7,7,2.4|
];
constraint_x18_x14=[
0,0,4.8|
0,1,6.3|
0,2,0.053|
0,3,4.9|
0,4,6.5|
0,5,5.4|
0,6,4.7|
0,7,2.6|
1,0,1.6|
1,1,7.1|
1,2,1.8|
1,3,8.5|
1,4,9.2|
1,5,7.1|
1,6,2.6|
1,7,7.6|
2,0,7|
2,1,7.3|
2,2,1.5|
2,3,4.4|
2,4,3.9|
2,5,4|
2,6,3.9|
2,7,5.1|
3,0,2.4|
3,1,6.6|
3,2,8.5|
3,3,6.8|
3,4,4.4|
3,5,0.2|
3,6,5.7|
3,7,4.5|
4,0,6.9|
4,1,4.5|
4,2,5.9|
4,3,1.5|
4,4,8.9|
4,5,5.9|
4,6,9.8|
4,7,5.6|
5,0,6.7|
5,1,0.56|
5,2,0.65|
5,3,6.5|
5,4,6.7|
5,5,0.8|
5,6,4.4|
5,7,8|
6,0,8|
6,1,3.5|
6,2,6.3|
6,3,5.5|
6,4,6.5|
6,5,7.7|
6,6,0.13|
6,7,7.3|
7,0,8.6|
7,1,8.7|
7,2,0.75|
7,3,1.4|
7,4,4.5|
7,5,3.6|
7,6,9.4|
7,7,1.8|
];
constraint_x19_x15=[
0,0,9.5|
0,1,6.4|
0,2,3.6|
0,3,2|
0,4,6.4|
0,5,4.3|
0,6,1.6|
0,7,4|
1,0,2.6|
1,1,0.32|
1,2,6.6|
1,3,7.9|
1,4,7.9|
1,5,1.6|
1,6,3|
1,7,0.22|
2,0,8.3|
2,1,8.7|
2,2,5.7|
2,3,8.6|
2,4,4.3|
2,5,4.9|
2,6,8|
2,7,8.1|
3,0,9.4|
3,1,1.4|
3,2,9.6|
3,3,2.7|
3,4,1.7|
3,5,8.1|
3,6,2.6|
3,7,2.1|
4,0,0.18|
4,1,2.6|
4,2,6.8|
4,3,8.9|
4,4,1.1|
4,5,3.4|
4,6,3.2|
4,7,9.6|
5,0,8.9|
5,1,5.5|
5,2,1.2|
5,3,3.9|
5,4,4.7|
5,5,8.3|
5,6,7.2|
5,7,2.6|
6,0,9.8|
6,1,1.7|
6,2,6.2|
6,3,5.2|
6,4,3.2|
6,5,6.4|
6,6,1.4|
6,7,7.5|
7,0,0.15|
7,1,3.1|
7,2,9.6|
7,3,1.2|
7,4,5.8|
7,5,1.3|
7,6,8.9|
7,7,3.6|
];
constraint_x20_x16=[
0,0,8.7|
0,1,3.6|
0,2,6.3|
0,3,7.4|
0,4,2.5|
0,5,5.1|
0,6,5|
0,7,6.4|
1,0,3.1|
1,1,1.6|
1,2,8.2|
1,3,8.4|
1,4,0.51|
1,5,6.3|
1,6,3.3|
1,7,7.6|
2,0,7.2|
2,1,6.6|
2,2,2.7|
2,3,2.7|
2,4,8|
2,5,8.9|
2,6,2.6|
2,7,5.9|
3,0,3.3|
3,1,6.4|
3,2,0.46|
3,3,4.7|
3,4,3.2|
3,5,0.79|
3,6,5.2|
3,7,5.4|
4,0,7.8|
4,1,2.8|
4,2,1.8|
4,3,7.3|
4,4,1.3|
4,5,0.11|
4,6,5|
4,7,9.9|
5,0,0.015|
5,1,0.62|
5,2,9.3|
5,3,0.33|
5,4,8.3|
5,5,6|
5,6,8.7|
5,7,6.1|
6,0,6.6|
6,1,7.9|
6,2,7.1|
6,3,5.9|
6,4,1.3|
6,5,0.45|
6,6,1.6|
6,7,3.6|
7,0,2.6|
7,1,4.1|
7,2,1.3|
7,3,3.6|
7,4,8.8|
7,5,6.7|
7,6,0.92|
7,7,3.1|
];
constraint_x1_y1=[
0,0,2.6|
0,1,2.5|
0,2,6.4|
0,3,6.8|
0,4,7.2|
0,5,6.7|
0,6,6.5|
0,7,4|
1,0,0.98|
1,1,8.3|
1,2,8.4|
1,3,4.1|
1,4,1.6|
1,5,0.86|
1,6,7.9|
1,7,1.3|
2,0,5.1|
2,1,0.018|
2,2,5.3|
2,3,7.8|
2,4,5|
2,5,6.9|
2,6,5.5|
2,7,6.6|
3,0,2.8|
3,1,7.8|
3,2,8|
3,3,5.2|
3,4,8.4|
3,5,7.6|
3,6,6|
3,7,8.3|
4,0,3|
4,1,3.7|
4,2,1.5|
4,3,0.23|
4,4,7.6|
4,5,6.6|
4,6,8|
4,7,6.8|
5,0,0.044|
5,1,6.5|
5,2,5.2|
5,3,6.3|
5,4,8.9|
5,5,0.24|
5,6,8.8|
5,7,7.3|
6,0,6.9|
6,1,8.6|
6,2,7.2|
6,3,4.7|
6,4,2.5|
6,5,5.9|
6,6,8.4|
6,7,7.1|
7,0,5.4|
7,1,0.012|
7,2,2.5|
7,3,4.3|
7,4,4.1|
7,5,3.5|
7,6,3.3|
7,7,4.4|
];
constraint_x2_y2=[
0,0,5.4|
0,1,1.9|
0,2,7.8|
0,3,0.96|
0,4,0.28|
0,5,2.4|
0,6,2.4|
0,7,5.2|
1,0,0.71|
1,1,9|
1,2,2.5|
1,3,8.9|
1,4,7.2|
1,5,6.4|
1,6,6.4|
1,7,7.4|
2,0,9.1|
2,1,5.8|
2,2,2|
2,3,3.8|
2,4,5.3|
2,5,2.5|
2,6,7.8|
2,7,5.5|
3,0,8.7|
3,1,8.6|
3,2,2.8|
3,3,3.6|
3,4,6.8|
3,5,9.8|
3,6,2.5|
3,7,8|
4,0,4.1|
4,1,9.4|
4,2,0.91|
4,3,0.56|
4,4,9.7|
4,5,3.7|
4,6,8.3|
4,7,1.3|
5,0,7.4|
5,1,7.1|
5,2,9.9|
5,3,8.6|
5,4,0.014|
5,5,4.4|
5,6,1|
5,7,0.0074|
6,0,1.3|
6,1,5.5|
6,2,9.4|
6,3,0.18|
6,4,1.4|
6,5,2.9|
6,6,0.19|
6,7,9.8|
7,0,6.1|
7,1,4|
7,2,1.5|
7,3,3.3|
7,4,0.18|
7,5,7.5|
7,6,1.7|
7,7,5.8|
];
constraint_x3_y3=[
0,0,0.28|
0,1,2.4|
0,2,0.8|
0,3,0.88|
0,4,4.8|
0,5,1.7|
0,6,0.34|
0,7,0.034|
1,0,2.3|
1,1,7|
1,2,3|
1,3,9.7|
1,4,2.7|
1,5,5.4|
1,6,5.7|
1,7,2.8|
2,0,5.8|
2,1,1.4|
2,2,6.2|
2,3,8.4|
2,4,4|
2,5,2|
2,6,8.3|
2,7,7.9|
3,0,3.1|
3,1,3.4|
3,2,6.5|
3,3,0.38|
3,4,3.1|
3,5,1.8|
3,6,6.1|
3,7,4.5|
4,0,6.9|
4,1,7.6|
4,2,2.6|
4,3,2.7|
4,4,0.7|
4,5,7.2|
4,6,9|
4,7,5.4|
5,0,6|
5,1,0.89|
5,2,9.1|
5,3,2.1|
5,4,9.5|
5,5,1.4|
5,6,6.9|
5,7,7.1|
6,0,6.9|
6,1,6.1|
6,2,3.6|
6,3,7.7|
6,4,2.2|
6,5,7.5|
6,6,8.3|
6,7,6.6|
7,0,4.5|
7,1,8.3|
7,2,5.8|
7,3,8.1|
7,4,4.4|
7,5,6.8|
7,6,3.8|
7,7,2.3|
];
constraint_x4_y4=[
0,0,9.1|
0,1,9.3|
0,2,9.8|
0,3,1.7|
0,4,8.5|
0,5,7|
0,6,2.8|
0,7,7.2|
1,0,2.7|
1,1,3.3|
1,2,7.6|
1,3,2.7|
1,4,0.73|
1,5,8.6|
1,6,1.3|
1,7,1.1|
2,0,3.8|
2,1,7.1|
2,2,9.4|
2,3,8|
2,4,0.9|
2,5,5.4|
2,6,5.6|
2,7,9.7|
3,0,9.1|
3,1,4.1|
3,2,3.9|
3,3,1.9|
3,4,3|
3,5,4.1|
3,6,0.24|
3,7,0.88|
4,0,6.9|
4,1,9.7|
4,2,1.9|
4,3,5.2|
4,4,1.2|
4,5,5.4|
4,6,5.3|
4,7,6.5|
5,0,5.3|
5,1,9.8|
5,2,2|
5,3,6.4|
5,4,5.5|
5,5,3|
5,6,1.2|
5,7,8.1|
6,0,0.84|
6,1,7|
6,2,1.8|
6,3,4.6|
6,4,8.1|
6,5,3.5|
6,6,0.14|
6,7,1.4|
7,0,0.45|
7,1,6.7|
7,2,6|
7,3,5.1|
7,4,6|
7,5,2.3|
7,6,2.8|
7,7,3.9|
];
constraint_x5_y5=[
0,0,10|
0,1,6.5|
0,2,1.3|
0,3,0.22|
0,4,0.27|
0,5,2.6|
0,6,6.4|
0,7,8.5|
1,0,6|
1,1,1.8|
1,2,8.6|
1,3,8.2|
1,4,0.82|
1,5,0.41|
1,6,8.3|
1,7,6.6|
2,0,3.5|
2,1,2.6|
2,2,3|
2,3,8.3|
2,4,5.8|
2,5,0.11|
2,6,5.7|
2,7,3.1|
3,0,4.5|
3,1,3.4|
3,2,4.7|
3,3,6.9|
3,4,0.25|
3,5,6.7|
3,6,7.6|
3,7,1.2|
4,0,1.6|
4,1,3.2|
4,2,2.7|
4,3,7.8|
4,4,6.6|
4,5,5.5|
4,6,2.1|
4,7,4.4|
5,0,9.5|
5,1,6.6|
5,2,4.5|
5,3,0.5|
5,4,9.1|
5,5,5.5|
5,6,3.7|
5,7,6.7|
6,0,8.3|
6,1,4.9|
6,2,4.9|
6,3,5.2|
6,4,1.4|
6,5,0.96|
6,6,0.19|
6,7,9.9|
7,0,8.7|
7,1,9.5|
7,2,9.5|
7,3,7.2|
7,4,9.4|
7,5,7.4|
7,6,3.4|
7,7,7.5|
];
constraint_x6_y6=[
0,0,5|
0,1,6.1|
0,2,9.4|
0,3,2.1|
0,4,9.8|
0,5,2.7|
0,6,7.2|
0,7,2.6|
1,0,7.2|
1,1,4.1|
1,2,4.8|
1,3,3.8|
1,4,5.7|
1,5,6.4|
1,6,5.3|
1,7,1.4|
2,0,0.85|
2,1,9.3|
2,2,1.5|
2,3,0.39|
2,4,8.1|
2,5,5.4|
2,6,4|
2,7,0.64|
3,0,3.9|
3,1,5.6|
3,2,0.38|
3,3,4.4|
3,4,7|
3,5,6.2|
3,6,5.2|
3,7,6.6|
4,0,9.8|
4,1,2.3|
4,2,2|
4,3,1|
4,4,0.82|
4,5,9|
4,6,8.8|
4,7,2|
5,0,0.4|
5,1,8.6|
5,2,7.4|
5,3,4.8|
5,4,1.1|
5,5,7.9|
5,6,3.2|
5,7,5|
6,0,5.6|
6,1,4|
6,2,10|
6,3,6|
6,4,3|
6,5,9.5|
6,6,9.8|
6,7,7.6|
7,0,8.2|
7,1,1.2|
7,2,9|
7,3,3.4|
7,4,1.6|
7,5,2.2|
7,6,7.6|
7,7,9.7|
];
constraint_x7_y7=[
0,0,9.1|
0,1,7|
0,2,7.6|
0,3,5|
0,4,5.9|
0,5,6|
0,6,3.8|
0,7,9|
1,0,0.8|
1,1,0.78|
1,2,9.4|
1,3,3.6|
1,4,5.8|
1,5,2.3|
1,6,9|
1,7,5|
2,0,0.75|
2,1,7.4|
2,2,7|
2,3,7.1|
2,4,1|
2,5,4.1|
2,6,4.7|
2,7,0.17|
3,0,0.56|
3,1,7.8|
3,2,3.9|
3,3,7.3|
3,4,4.2|
3,5,9.5|
3,6,9.4|
3,7,9.1|
4,0,6.7|
4,1,1.9|
4,2,2.5|
4,3,1.3|
4,4,6|
4,5,7.1|
4,6,2|
4,7,5.5|
5,0,9.4|
5,1,8.3|
5,2,9.1|
5,3,0.31|
5,4,4.9|
5,5,5.1|
5,6,6.1|
5,7,9|
6,0,8.4|
6,1,9.3|
6,2,3.2|
6,3,3.7|
6,4,9.8|
6,5,5.3|
6,6,5.9|
6,7,9.3|
7,0,3.1|
7,1,1.3|
7,2,2.6|
7,3,9.3|
7,4,1.8|
7,5,8.7|
7,6,8.2|
7,7,0.8|
];
constraint_x8_y8=[
0,0,7.4|
0,1,8|
0,2,3.6|
0,3,8.1|
0,4,7.7|
0,5,1.6|
0,6,2.9|
0,7,9|
1,0,3.5|
1,1,8.2|
1,2,1.8|
1,3,3.3|
1,4,3.5|
1,5,9.1|
1,6,9.6|
1,7,8.6|
2,0,3.7|
2,1,9.6|
2,2,2.8|
2,3,8.5|
2,4,9.3|
2,5,9|
2,6,2.1|
2,7,1.4|
3,0,6.3|
3,1,5.8|
3,2,5|
3,3,7.6|
3,4,4|
3,5,6.3|
3,6,5.2|
3,7,3.6|
4,0,0.3|
4,1,4.8|
4,2,8.8|
4,3,4.5|
4,4,0.063|
4,5,9.6|
4,6,6.3|
4,7,3.1|
5,0,2.9|
5,1,5.2|
5,2,0.85|
5,3,1.5|
5,4,2.8|
5,5,2.1|
5,6,7.9|
5,7,0.36|
6,0,7|
6,1,6.2|
6,2,2.6|
6,3,5.4|
6,4,9.7|
6,5,8.2|
6,6,2.6|
6,7,4.5|
7,0,0.005|
7,1,2.5|
7,2,6.6|
7,3,3.5|
7,4,3.9|
7,5,1.2|
7,6,0.5|
7,7,5.5|
];
constraint_x9_y9=[
0,0,4.8|
0,1,1.8|
0,2,5.3|
0,3,5.2|
0,4,1|
0,5,8.8|
0,6,5|
0,7,4|
1,0,7.9|
1,1,0.52|
1,2,4.3|
1,3,7.6|
1,4,5.4|
1,5,0.72|
1,6,8.1|
1,7,2.6|
2,0,5.9|
2,1,5.3|
2,2,1.7|
2,3,6|
2,4,4|
2,5,8.7|
2,6,9.3|
2,7,6.7|
3,0,5.8|
3,1,0.54|
3,2,2.1|
3,3,8.8|
3,4,5.6|
3,5,6.3|
3,6,10|
3,7,6.4|
4,0,6.4|
4,1,4.9|
4,2,0.2|
4,3,8.3|
4,4,2|
4,5,9.3|
4,6,5|
4,7,2.8|
5,0,3.3|
5,1,9.9|
5,2,7|
5,3,2.8|
5,4,3.7|
5,5,5.7|
5,6,9.8|
5,7,3.6|
6,0,1.6|
6,1,2.5|
6,2,5.3|
6,3,0.5|
6,4,6.7|
6,5,5.8|
6,6,9.5|
6,7,6.2|
7,0,8|
7,1,9.2|
7,2,9.4|
7,3,3.7|
7,4,8.5|
7,5,3.2|
7,6,4.3|
7,7,2.6|
];
initial_distribution_y1=[0.096,0.14,0.19,0.032,0.22,0.1,0.13,0.091];
initial_distribution_y2=[0.0069,0.034,0.17,0.16,0.15,0.16,0.18,0.15];
initial_distribution_y3=[0.31,0.055,0.23,0.024,0.031,0.038,0.1,0.21];
initial_distribution_y4=[0.14,0.092,0.2,0.2,0.059,0.16,0.08,0.063];
initial_distribution_y5=[0.14,0.079,0.13,0.22,0.16,0.047,0.22,0.0086];
initial_distribution_y6=[0.03,0.075,0.22,0.19,0.029,0.086,0.18,0.19];
initial_distribution_y7=[0.23,0.062,0.1,0.079,0.04,0.25,0.21,0.027];
initial_distribution_y8=[0.19,0.21,0.11,0.083,0.058,0.071,0.055,0.23];
initial_distribution_y9=[0.17,0.2,0.17,0.18,0.12,0.062,0.024,0.067];
transition_y1=[
0.15,0.19,0.12,0.21,0.078,0.083,0.06,0.1|
0.076,0.16,0.12,0.16,0.14,0.17,0.042,0.14|
0.029,0.004,0.17,0.11,0.2,0.11,0.19,0.18|
0.038,0.22,0.17,0.1,0.055,0.15,0.076,0.18|
0.18,0.22,0.22,0.17,0.0053,0.013,0.059,0.13|
0.19,0.16,0.14,0.074,0.099,0.13,0.11,0.11|
0.16,0.12,0.18,0.0043,0.12,0.061,0.18,0.18|
0.25,0.22,0.016,0.1,0.054,0.04,0.061,0.25|
];
transition_y2=[
0.058,0.16,0.2,0.19,0.055,0.17,0.13,0.029|
0.016,0.08,0.17,0.094,0.21,0.18,0.22,0.039|
0.23,0.1,0.1,0.0091,0.11,0.16,0.23,0.055|
0.11,0.18,0.17,0.016,0.17,0.2,0.041,0.11|
0.23,0.027,0.19,0.02,0.16,0.11,0.23,0.045|
0.15,0.057,0.2,0.054,0.19,0.046,0.1,0.2|
0.047,0.21,0.023,0.056,0.16,0.073,0.25,0.18|
0.096,0.25,0.1,0.26,0.13,0.026,0.054,0.089|
];
transition_y3=[
0.033,0.14,0.13,0.14,0.17,0.12,0.17,0.1|
0.032,0.25,0.067,0.15,0.088,0.12,0.019,0.28|
0.13,0.1,0.13,0.14,0.058,0.2,0.039,0.2|
0.18,0.077,0.13,0.091,0.14,0.15,0.029,0.2|
0.16,0.18,0.077,0.11,0.072,0.21,0.036,0.16|
0.095,0.12,0.1,0.14,0.16,0.18,0.12,0.065|
0.062,0.18,0.092,0.12,0.16,0.086,0.14,0.16|
0.13,0.23,0.1,0.25,0.02,0.06,0.049,0.16|
];
transition_y4=[
0.091,0.24,0.013,0.24,0.19,0.14,0.089,0.0046|
0.15,0.033,0.18,0.12,0.055,0.13,0.16,0.18|
0.21,0.18,0.083,0.098,0.21,0.029,0.11,0.084|
0.18,0.16,0.16,0.055,0.075,0.17,0.16,0.029|
0.21,0.052,0.26,0.12,0.091,0.05,0.2,0.02|
0.037,0.22,0.12,0.025,0.18,0.27,0.056,0.089|
0.24,0.24,0.025,0.028,0.074,0.026,0.2,0.17|
0.12,0.083,0.22,0.012,0.2,0.16,0.16,0.046|
];
transition_y5=[
0.073,0.24,0.057,0.25,0.073,0.083,0.028,0.2|
0.17,0.18,0.18,0.033,0.04,0.045,0.055,0.3|
0.11,0.03,0.081,0.21,0.14,0.17,0.023,0.23|
0.21,0.052,0.17,0.29,0.078,0.029,0.15,0.03|
0.16,0.024,0.18,0.019,0.19,0.15,0.15,0.12|
0.21,0.061,0.15,0.095,0.12,0.21,0.063,0.095|
0.13,0.17,0.17,0.14,0.13,0.081,0.12,0.07|
0.1,0.16,0.17,0.14,0.098,0.13,0.1,0.11|
];
transition_y6=[
0.051,0.15,0.16,0.098,0.18,0.0031,0.18,0.18|
0.018,0.29,0.22,0.083,0.13,0.15,0.087,0.015|
0.2,0.12,0.16,0.089,0.067,0.061,0.15,0.17|
0.022,0.21,0.16,0.014,0.11,0.16,0.22,0.1|
0.19,0.069,0.076,0.22,0.0057,0.024,0.19,0.23|
0.098,0.086,0.14,0.02,0.24,0.11,0.19,0.12|
0.009,0.16,0.016,0.11,0.12,0.21,0.2,0.17|
0.15,0.15,0.22,0.1,0.11,0.083,0.044,0.14|
];
transition_y7=[
0.082,0.17,0.12,0.069,0.12,0.13,0.2,0.11|
0.045,0.08,0.17,0.21,0.084,0.1,0.15,0.16|
0.17,0.17,0.097,0.24,0.12,0.035,0.15,0.023|
0.022,0.18,0.17,0.19,0.096,0.15,0.06,0.13|
0.097,0.24,0.12,0.11,0.16,0.2,0.064,0.0076|
0.017,0.17,0.22,0.17,0.15,0.087,0.14,0.051|
0.19,0.18,0.18,0.22,0.053,0.14,0.035,0.0047|
0.093,0.12,0.11,0.12,0.01,0.36,0.0058,0.18|
];
transition_y8=[
0.16,0.024,0.038,0.2,0.16,0.085,0.23,0.1|
0.085,0.12,0.26,0.033,0.25,0.15,0.085,0.028|
0.04,0.086,0.18,0.14,0.13,0.056,0.2,0.17|
0.21,0.18,0.12,0.099,0.11,0.13,0.091,0.057|
0.19,0.11,0.19,0.11,0.099,0.15,0.12,0.042|
0.14,0.02,0.0095,0.15,0.05,0.22,0.18,0.22|
0.15,0.05,0.19,0.1,0.067,0.091,0.17,0.18|
0.13,0.15,0.016,0.15,0.15,0.15,0.12,0.13|
];
transition_y9=[
0.15,0.04,0.063,0.18,0.19,0.15,0.036,0.19|
0.032,0.035,0.1,0.17,0.2,0.14,0.015,0.31|
0.16,0.011,0.1,0.13,0.15,0.16,0.15,0.13|
0.084,0.19,0.069,0.032,0.14,0.14,0.15,0.19|
0.013,0.087,0.29,0.02,0.27,0.031,0.24,0.045|
0.073,0.16,0.055,0.13,0.13,0.071,0.18,0.2|
0.02,0.12,0.027,0.21,0.24,0.029,0.093,0.26|
0.2,0.13,0.13,0.068,0.13,0.16,0.13,0.048|
];
